51 52 12 36 28 89 45 31 88 39 55 50 33 72 58 62 71 22 78 90 56 94 42 25 57 23 26 46 69 86 59 24 49 34 97 75 32 3 13 5 79 70 35 11 95 98 64 29 92 74 91 93 1 60 87 99 41 82 18 66 17 38 53 21 16 10 4 77 37 67 40 15 14 96 0 84 73 7 76 19 48 47 9 27 20 8 43 63 83 6 61 30 80 65 68 81 54 2 44 85
